g3 1 1 0	# problem unknown
 6 200 1 0 0 	# vars, constraints, objectives, general inequalities, equalities  
 200 1 	# nonlinear constraints, objectives
 0 0	# network constraints: nonlinear, linear
 6 3 3 	# nonlinear vars in constraints, objectives, both
 0 0 0 1	# linear network variables; functions; arith, flags
 0 0 0 0 0 	# discrete variables: binary, integer, nonlinear (b,c,o)
 1100 3 	# nonzeros in Jacobian, obj. gradient
 0 0	# max name lengths: constraints, variables
 0 0 0 0 0	# common exprs: b,c,o,c1,o1
C0	#unknown_cons1[1]
o54
3
o5
o0
n-0.544
o0
v4
o2
v0
o2
v1
o46
v3
n2
o5
o0
n-0.492
o0
v5
o2
v0
o2
v1
o41
v3
n2
o2
n-1
o5
o0
v1
v2
n2
C1	#unknown_cons1[2]
o54
3
o5
o0
n-0.714
o0
v4
o2
v0
o2
v1
o46
v3
n2
o5
o0
n-0.505
o0
v5
o2
v0
o2
v1
o41
v3
n2
o2
n-1
o5
o0
v1
v2
n2
C2	#unknown_cons1[3]
o54
3
o5
o0
n-0.594
o0
v4
o2
v0
o2
v1
o46
v3
n2
o5
o0
n-0.094
o0
v5
o2
v0
o2
v1
o41
v3
n2
o2
n-1
o5
o0
v1
v2
n2
C3	#unknown_cons1[4]
o54
3
o5
o0
n-0.474
o0
v4
o2
v0
o2
v1
o46
v3
n2
o5
o0
n-0.398
o0
v5
o2
v0
o2
v1
o41
v3
n2
o2
n-1
o5
o0
v1
v2
n2
C4	#unknown_cons1[5]
o54
3
o5
o0
n-0.47
o0
v4
o2
v0
o2
v1
o46
v3
n2
o5
o0
n-0.804
o0
v5
o2
v0
o2
v1
o41
v3
n2
o2
n-1
o5
o0
v1
v2
n2
C5	#unknown_cons1[6]
o54
3
o5
o0
n-0.241
o0
v4
o2
v0
o2
v1
o46
v3
n2
o5
o0
n-0.955
o0
v5
o2
v0
o2
v1
o41
v3
n2
o2
n-1
o5
o0
v1
v2
n2
C6	#unknown_cons1[7]
o54
3
o5
o0
n-0.503
o0
v4
o2
v0
o2
v1
o46
v3
n2
o5
o0
n-0.097
o0
v5
o2
v0
o2
v1
o41
v3
n2
o2
n-1
o5
o0
v1
v2
n2
C7	#unknown_cons1[8]
o54
3
o5
o0
n-0.854
o0
v4
o2
v0
o2
v1
o46
v3
n2
o5
o0
n-0.359
o0
v5
o2
v0
o2
v1
o41
v3
n2
o2
n-1
o5
o0
v1
v2
n2
C8	#unknown_cons1[9]
o54
3
o5
o0
n-0.438
o0
v4
o2
v0
o2
v1
o46
v3
n2
o5
o0
n-0.477
o0
v5
o2
v0
o2
v1
o41
v3
n2
o2
n-1
o5
o0
v1
v2
n2
C9	#unknown_cons1[10]
o54
3
o5
o0
n-0.294
o0
v4
o2
v0
o2
v1
o46
v3
n2
o5
o0
n-0.887
o0
v5
o2
v0
o2
v1
o41
v3
n2
o2
n-1
o5
o0
v1
v2
n2
C10	#unknown_cons1[11]
o54
3
o5
o0
n-0.479
o0
v4
o2
v0
o2
v1
o46
v3
n2
o5
o0
n-0.372
o0
v5
o2
v0
o2
v1
o41
v3
n2
o2
n-1
o5
o0
v1
v2
n2
C11	#unknown_cons1[12]
o54
3
o5
o0
n-0.413
o0
v4
o2
v0
o2
v1
o46
v3
n2
o5
o0
n-0.911
o0
v5
o2
v0
o2
v1
o41
v3
n2
o2
n-1
o5
o0
v1
v2
n2
C12	#unknown_cons1[13]
o54
3
o5
o0
n-0.722
o0
v4
o2
v0
o2
v1
o46
v3
n2
o5
o0
n-0.082
o0
v5
o2
v0
o2
v1
o41
v3
n2
o2
n-1
o5
o0
v1
v2
n2
C13	#unknown_cons1[14]
o54
3
o5
o0
n-0.358
o0
v4
o2
v0
o2
v1
o46
v3
n2
o5
o0
n-0.788
o0
v5
o2
v0
o2
v1
o41
v3
n2
o2
n-1
o5
o0
v1
v2
n2
C14	#unknown_cons1[15]
o54
3
o5
o0
n-0.836
o0
v4
o2
v0
o2
v1
o46
v3
n2
o5
o0
n-0.225
o0
v5
o2
v0
o2
v1
o41
v3
n2
o2
n-1
o5
o0
v1
v2
n2
C15	#unknown_cons1[16]
o54
3
o5
o0
n-0.648
o0
v4
o2
v0
o2
v1
o46
v3
n2
o5
o0
n-0.424
o0
v5
o2
v0
o2
v1
o41
v3
n2
o2
n-1
o5
o0
v1
v2
n2
C16	#unknown_cons1[17]
o54
3
o5
o0
n-0.267
o0
v4
o2
v0
o2
v1
o46
v3
n2
o5
o0
n-0.932
o0
v5
o2
v0
o2
v1
o41
v3
n2
o2
n-1
o5
o0
v1
v2
n2
C17	#unknown_cons1[18]
o54
3
o5
o0
n-0.362
o0
v4
o2
v0
o2
v1
o46
v3
n2
o5
o0
n-0.697
o0
v5
o2
v0
o2
v1
o41
v3
n2
o2
n-1
o5
o0
v1
v2
n2
C18	#unknown_cons1[19]
o54
3
o5
o0
n-0.232
o0
v4
o2
v0
o2
v1
o46
v3
n2
o5
o0
n-0.969
o0
v5
o2
v0
o2
v1
o41
v3
n2
o2
n-1
o5
o0
v1
v2
n2
C19	#unknown_cons1[20]
o54
3
o5
o0
n-0.667
o0
v4
o2
v0
o2
v1
o46
v3
n2
o5
o0
n-0.527
o0
v5
o2
v0
o2
v1
o41
v3
n2
o2
n-1
o5
o0
v1
v2
n2
C20	#unknown_cons1[21]
o54
3
o5
o0
n-0.476
o0
v4
o2
v0
o2
v1
o46
v3
n2
o5
o0
n-0.735
o0
v5
o2
v0
o2
v1
o41
v3
n2
o2
n-1
o5
o0
v1
v2
n2
C21	#unknown_cons1[22]
o54
3
o5
o0
n-0.868
o0
v4
o2
v0
o2
v1
o46
v3
n2
o5
o0
n-0.141
o0
v5
o2
v0
o2
v1
o41
v3
n2
o2
n-1
o5
o0
v1
v2
n2
C22	#unknown_cons1[23]
o54
3
o5
o0
n-0.603
o0
v4
o2
v0
o2
v1
o46
v3
n2
o5
o0
n-0.55
o0
v5
o2
v0
o2
v1
o41
v3
n2
o2
n-1
o5
o0
v1
v2
n2
C23	#unknown_cons1[24]
o54
3
o5
o0
n-0.788
o0
v4
o2
v0
o2
v1
o46
v3
n2
o5
o0
n-0.399
o0
v5
o2
v0
o2
v1
o41
v3
n2
o2
n-1
o5
o0
v1
v2
n2
C24	#unknown_cons1[25]
o54
3
o5
o0
n-0.745
o0
v4
o2
v0
o2
v1
o46
v3
n2
o5
o0
n-0.365
o0
v5
o2
v0
o2
v1
o41
v3
n2
o2
n-1
o5
o0
v1
v2
n2
C25	#unknown_cons1[26]
o54
3
o5
o0
n-0.627
o0
v4
o2
v0
o2
v1
o46
v3
n2
o5
o0
n-0.762
o0
v5
o2
v0
o2
v1
o41
v3
n2
o2
n-1
o5
o0
v1
v2
n2
C26	#unknown_cons1[27]
o54
3
o5
o0
n-0.394
o0
v4
o2
v0
o2
v1
o46
v3
n2
o5
o0
n-0.779
o0
v5
o2
v0
o2
v1
o41
v3
n2
o2
n-1
o5
o0
v1
v2
n2
C27	#unknown_cons1[28]
o54
3
o5
o0
n-0.22
o0
v4
o2
v0
o2
v1
o46
v3
n2
o5
o0
n-0.869
o0
v5
o2
v0
o2
v1
o41
v3
n2
o2
n-1
o5
o0
v1
v2
n2
C28	#unknown_cons1[29]
o54
3
o5
o0
n-0.548
o0
v4
o2
v0
o2
v1
o46
v3
n2
o5
o0
n-0.625
o0
v5
o2
v0
o2
v1
o41
v3
n2
o2
n-1
o5
o0
v1
v2
n2
C29	#unknown_cons1[30]
o54
3
o5
o0
n-0.446
o0
v4
o2
v0
o2
v1
o46
v3
n2
o5
o0
n-0.778
o0
v5
o2
v0
o2
v1
o41
v3
n2
o2
n-1
o5
o0
v1
v2
n2
C30	#unknown_cons1[31]
o54
3
o5
o0
n-0.463
o0
v4
o2
v0
o2
v1
o46
v3
n2
o5
o0
n-0.762
o0
v5
o2
v0
o2
v1
o41
v3
n2
o2
n-1
o5
o0
v1
v2
n2
C31	#unknown_cons1[32]
o54
3
o5
o0
n-0.541
o0
v4
o2
v0
o2
v1
o46
v3
n2
o5
o0
n-0.068
o0
v5
o2
v0
o2
v1
o41
v3
n2
o2
n-1
o5
o0
v1
v2
n2
C32	#unknown_cons1[33]
o54
3
o5
o0
n-0.631
o0
v4
o2
v0
o2
v1
o46
v3
n2
o5
o0
n-0.67
o0
v5
o2
v0
o2
v1
o41
v3
n2
o2
n-1
o5
o0
v1
v2
n2
C33	#unknown_cons1[34]
o54
3
o5
o0
n-0.735
o0
v4
o2
v0
o2
v1
o46
v3
n2
o5
o0
n-0.151
o0
v5
o2
v0
o2
v1
o41
v3
n2
o2
n-1
o5
o0
v1
v2
n2
C34	#unknown_cons1[35]
o54
3
o5
o0
n-0.674
o0
v4
o2
v0
o2
v1
o46
v3
n2
o5
o0
n-0.49
o0
v5
o2
v0
o2
v1
o41
v3
n2
o2
n-1
o5
o0
v1
v2
n2
C35	#unknown_cons1[36]
o54
3
o5
o0
n-0.62
o0
v4
o2
v0
o2
v1
o46
v3
n2
o5
o0
n-0.565
o0
v5
o2
v0
o2
v1
o41
v3
n2
o2
n-1
o5
o0
v1
v2
n2
C36	#unknown_cons1[37]
o54
3
o5
o0
n-0.257
o0
v4
o2
v0
o2
v1
o46
v3
n2
o5
o0
n-0.862
o0
v5
o2
v0
o2
v1
o41
v3
n2
o2
n-1
o5
o0
v1
v2
n2
C37	#unknown_cons1[38]
o54
3
o5
o0
n-0.659
o0
v4
o2
v0
o2
v1
o46
v3
n2
o5
o0
n-0.01
o0
v5
o2
v0
o2
v1
o41
v3
n2
o2
n-1
o5
o0
v1
v2
n2
C38	#unknown_cons1[39]
o54
3
o5
o0
n-0.475
o0
v4
o2
v0
o2
v1
o46
v3
n2
o5
o0
n-0.585
o0
v5
o2
v0
o2
v1
o41
v3
n2
o2
n-1
o5
o0
v1
v2
n2
C39	#unknown_cons1[40]
o54
3
o5
o0
n-0.708
o0
v4
o2
v0
o2
v1
o46
v3
n2
o5
o0
n-0.475
o0
v5
o2
v0
o2
v1
o41
v3
n2
o2
n-1
o5
o0
v1
v2
n2
C40	#unknown_cons1[41]
o54
3
o5
o0
n-0.545
o0
v4
o2
v0
o2
v1
o46
v3
n2
o5
o0
n-0.371
o0
v5
o2
v0
o2
v1
o41
v3
n2
o2
n-1
o5
o0
v1
v2
n2
C41	#unknown_cons1[42]
o54
3
o5
o0
n-0.586
o0
v4
o2
v0
o2
v1
o46
v3
n2
o5
o0
n-0.085
o0
v5
o2
v0
o2
v1
o41
v3
n2
o2
n-1
o5
o0
v1
v2
n2
C42	#unknown_cons1[43]
o54
3
o5
o0
n-0.796
o0
v4
o2
v0
o2
v1
o46
v3
n2
o5
o0
n-0.309
o0
v5
o2
v0
o2
v1
o41
v3
n2
o2
n-1
o5
o0
v1
v2
n2
C43	#unknown_cons1[44]
o54
3
o5
o0
n-0.525
o0
v4
o2
v0
o2
v1
o46
v3
n2
o5
o0
n-0.573
o0
v5
o2
v0
o2
v1
o41
v3
n2
o2
n-1
o5
o0
v1
v2
n2
C44	#unknown_cons1[45]
o54
3
o5
o0
n-0.498
o0
v4
o2
v0
o2
v1
o46
v3
n2
o5
o0
n-0.53
o0
v5
o2
v0
o2
v1
o41
v3
n2
o2
n-1
o5
o0
v1
v2
n2
C45	#unknown_cons1[46]
o54
3
o5
o0
n-0.79
o0
v4
o2
v0
o2
v1
o46
v3
n2
o5
o0
n-0.217
o0
v5
o2
v0
o2
v1
o41
v3
n2
o2
n-1
o5
o0
v1
v2
n2
C46	#unknown_cons1[47]
o54
3
o5
o0
n-0.632
o0
v4
o2
v0
o2
v1
o46
v3
n2
o5
o0
n-0.169
o0
v5
o2
v0
o2
v1
o41
v3
n2
o2
n-1
o5
o0
v1
v2
n2
C47	#unknown_cons1[48]
o54
3
o5
o0
n-0.699
o0
v4
o2
v0
o2
v1
o46
v3
n2
o5
o0
n-0.024
o0
v5
o2
v0
o2
v1
o41
v3
n2
o2
n-1
o5
o0
v1
v2
n2
C48	#unknown_cons1[49]
o54
3
o5
o0
n-0.758
o0
v4
o2
v0
o2
v1
o46
v3
n2
o5
o0
n-0.436
o0
v5
o2
v0
o2
v1
o41
v3
n2
o2
n-1
o5
o0
v1
v2
n2
C49	#unknown_cons1[50]
o54
3
o5
o0
n-0.656
o0
v4
o2
v0
o2
v1
o46
v3
n2
o5
o0
n-0.662
o0
v5
o2
v0
o2
v1
o41
v3
n2
o2
n-1
o5
o0
v1
v2
n2
C50	#unknown_cons1[51]
o54
3
o5
o0
n-0.652
o0
v4
o2
v0
o2
v1
o46
v3
n2
o5
o0
n-0.251
o0
v5
o2
v0
o2
v1
o41
v3
n2
o2
n-1
o5
o0
v1
v2
n2
C51	#unknown_cons1[52]
o54
3
o5
o0
n-0.801
o0
v4
o2
v0
o2
v1
o46
v3
n2
o5
o0
n-0.511
o0
v5
o2
v0
o2
v1
o41
v3
n2
o2
n-1
o5
o0
v1
v2
n2
C52	#unknown_cons1[53]
o54
3
o5
o0
n-0.73
o0
v4
o2
v0
o2
v1
o46
v3
n2
o5
o0
n-0.611
o0
v5
o2
v0
o2
v1
o41
v3
n2
o2
n-1
o5
o0
v1
v2
n2
C53	#unknown_cons1[54]
o54
3
o5
o0
n-0.689
o0
v4
o2
v0
o2
v1
o46
v3
n2
o5
o0
n-0.277
o0
v5
o2
v0
o2
v1
o41
v3
n2
o2
n-1
o5
o0
v1
v2
n2
C54	#unknown_cons1[55]
o54
3
o5
o0
n-0.527
o0
v4
o2
v0
o2
v1
o46
v3
n2
o5
o0
n-0.612
o0
v5
o2
v0
o2
v1
o41
v3
n2
o2
n-1
o5
o0
v1
v2
n2
C55	#unknown_cons1[56]
o54
3
o5
o0
n-0.696
o0
v4
o2
v0
o2
v1
o46
v3
n2
o5
o0
n-0.074
o0
v5
o2
v0
o2
v1
o41
v3
n2
o2
n-1
o5
o0
v1
v2
n2
C56	#unknown_cons1[57]
o54
3
o5
o0
n-0.911
o0
v4
o2
v0
o2
v1
o46
v3
n2
o5
o0
n-0.052
o0
v5
o2
v0
o2
v1
o41
v3
n2
o2
n-1
o5
o0
v1
v2
n2
C57	#unknown_cons1[58]
o54
3
o5
o0
n-0.805
o0
v4
o2
v0
o2
v1
o46
v3
n2
o5
o0
n-0.075
o0
v5
o2
v0
o2
v1
o41
v3
n2
o2
n-1
o5
o0
v1
v2
n2
C58	#unknown_cons1[59]
o54
3
o5
o0
n-0.764
o0
v4
o2
v0
o2
v1
o46
v3
n2
o5
o0
n-0.067
o0
v5
o2
v0
o2
v1
o41
v3
n2
o2
n-1
o5
o0
v1
v2
n2
C59	#unknown_cons1[60]
o54
3
o5
o0
n-0.331
o0
v4
o2
v0
o2
v1
o46
v3
n2
o5
o0
n-0.759
o0
v5
o2
v0
o2
v1
o41
v3
n2
o2
n-1
o5
o0
v1
v2
n2
C60	#unknown_cons1[61]
o54
3
o5
o0
n-0.078
o0
v4
o2
v0
o2
v1
o46
v3
n2
o5
o0
n-0.983
o0
v5
o2
v0
o2
v1
o41
v3
n2
o2
n-1
o5
o0
v1
v2
n2
C61	#unknown_cons1[62]
o54
3
o5
o0
n-0.656
o0
v4
o2
v0
o2
v1
o46
v3
n2
o5
o0
n-0.34
o0
v5
o2
v0
o2
v1
o41
v3
n2
o2
n-1
o5
o0
v1
v2
n2
C62	#unknown_cons1[63]
o54
3
o5
o0
n-0.48
o0
v4
o2
v0
o2
v1
o46
v3
n2
o5
o0
n-0.232
o0
v5
o2
v0
o2
v1
o41
v3
n2
o2
n-1
o5
o0
v1
v2
n2
C63	#unknown_cons1[64]
o54
3
o5
o0
n-0.503
o0
v4
o2
v0
o2
v1
o46
v3
n2
o5
o0
n-0.14
o0
v5
o2
v0
o2
v1
o41
v3
n2
o2
n-1
o5
o0
v1
v2
n2
C64	#unknown_cons1[65]
o54
3
o5
o0
n-0.412
o0
v4
o2
v0
o2
v1
o46
v3
n2
o5
o0
n-0.683
o0
v5
o2
v0
o2
v1
o41
v3
n2
o2
n-1
o5
o0
v1
v2
n2
C65	#unknown_cons1[66]
o54
3
o5
o0
n-0.338
o0
v4
o2
v0
o2
v1
o46
v3
n2
o5
o0
n-0.624
o0
v5
o2
v0
o2
v1
o41
v3
n2
o2
n-1
o5
o0
v1
v2
n2
C66	#unknown_cons1[67]
o54
3
o5
o0
n-0.92
o0
v4
o2
v0
o2
v1
o46
v3
n2
o5
o0
n-0.139
o0
v5
o2
v0
o2
v1
o41
v3
n2
o2
n-1
o5
o0
v1
v2
n2
C67	#unknown_cons1[68]
o54
3
o5
o0
n-0.548
o0
v4
o2
v0
o2
v1
o46
v3
n2
o5
o0
n-0.474
o0
v5
o2
v0
o2
v1
o41
v3
n2
o2
n-1
o5
o0
v1
v2
n2
C68	#unknown_cons1[69]
o54
3
o5
o0
n-0.826
o0
v4
o2
v0
o2
v1
o46
v3
n2
o5
o0
n-0.443
o0
v5
o2
v0
o2
v1
o41
v3
n2
o2
n-1
o5
o0
v1
v2
n2
C69	#unknown_cons1[70]
o54
3
o5
o0
n-0.071
o0
v4
o2
v0
o2
v1
o46
v3
n2
o5
o0
n-0.969
o0
v5
o2
v0
o2
v1
o41
v3
n2
o2
n-1
o5
o0
v1
v2
n2
C70	#unknown_cons1[71]
o54
3
o5
o0
n-0.635
o0
v4
o2
v0
o2
v1
o46
v3
n2
o5
o0
n-0.728
o0
v5
o2
v0
o2
v1
o41
v3
n2
o2
n-1
o5
o0
v1
v2
n2
C71	#unknown_cons1[72]
o54
3
o5
o0
n-0.591
o0
v4
o2
v0
o2
v1
o46
v3
n2
o5
o0
n-0.57
o0
v5
o2
v0
o2
v1
o41
v3
n2
o2
n-1
o5
o0
v1
v2
n2
C72	#unknown_cons1[73]
o54
3
o5
o0
n-0.489
o0
v4
o2
v0
o2
v1
o46
v3
n2
o5
o0
n-0.427
o0
v5
o2
v0
o2
v1
o41
v3
n2
o2
n-1
o5
o0
v1
v2
n2
C73	#unknown_cons1[74]
o54
3
o5
o0
n-0.565
o0
v4
o2
v0
o2
v1
o46
v3
n2
o5
o0
n-0.105
o0
v5
o2
v0
o2
v1
o41
v3
n2
o2
n-1
o5
o0
v1
v2
n2
C74	#unknown_cons1[75]
o54
3
o5
o0
n-0.791
o0
v4
o2
v0
o2
v1
o46
v3
n2
o5
o0
n-0.554
o0
v5
o2
v0
o2
v1
o41
v3
n2
o2
n-1
o5
o0
v1
v2
n2
C75	#unknown_cons1[76]
o54
3
o5
o0
n-0.725
o0
v4
o2
v0
o2
v1
o46
v3
n2
o5
o0
n-0.174
o0
v5
o2
v0
o2
v1
o41
v3
n2
o2
n-1
o5
o0
v1
v2
n2
C76	#unknown_cons1[77]
o54
3
o5
o0
n-0.091
o0
v4
o2
v0
o2
v1
o46
v3
n2
o5
o0
n-0.951
o0
v5
o2
v0
o2
v1
o41
v3
n2
o2
n-1
o5
o0
v1
v2
n2
C77	#unknown_cons1[78]
o54
3
o5
o0
n-0.401
o0
v4
o2
v0
o2
v1
o46
v3
n2
o5
o0
n-0.79
o0
v5
o2
v0
o2
v1
o41
v3
n2
o2
n-1
o5
o0
v1
v2
n2
C78	#unknown_cons1[79]
o54
3
o5
o0
n-0.226
o0
v4
o2
v0
o2
v1
o46
v3
n2
o5
o0
n-0.968
o0
v5
o2
v0
o2
v1
o41
v3
n2
o2
n-1
o5
o0
v1
v2
n2
C79	#unknown_cons1[80]
o54
3
o5
o0
n-0.518
o0
v4
o2
v0
o2
v1
o46
v3
n2
o5
o0
n-0.663
o0
v5
o2
v0
o2
v1
o41
v3
n2
o2
n-1
o5
o0
v1
v2
n2
C80	#unknown_cons1[81]
o54
3
o5
o0
n-0.651
o0
v4
o2
v0
o2
v1
o46
v3
n2
o5
o0
n-0.166
o0
v5
o2
v0
o2
v1
o41
v3
n2
o2
n-1
o5
o0
v1
v2
n2
C81	#unknown_cons1[82]
o54
3
o5
o0
n-0.738
o0
v4
o2
v0
o2
v1
o46
v3
n2
o5
o0
n-0.146
o0
v5
o2
v0
o2
v1
o41
v3
n2
o2
n-1
o5
o0
v1
v2
n2
C82	#unknown_cons1[83]
o54
3
o5
o0
n-0.509
o0
v4
o2
v0
o2
v1
o46
v3
n2
o5
o0
n-0.28
o0
v5
o2
v0
o2
v1
o41
v3
n2
o2
n-1
o5
o0
v1
v2
n2
C83	#unknown_cons1[84]
o54
3
o5
o0
n-0.833
o0
v4
o2
v0
o2
v1
o46
v3
n2
o5
o0
n-0.176
o0
v5
o2
v0
o2
v1
o41
v3
n2
o2
n-1
o5
o0
v1
v2
n2
C84	#unknown_cons1[85]
o54
3
o5
o0
n-0.669
o0
v4
o2
v0
o2
v1
o46
v3
n2
o5
o0
n-0.044
o0
v5
o2
v0
o2
v1
o41
v3
n2
o2
n-1
o5
o0
v1
v2
n2
C85	#unknown_cons1[86]
o54
3
o5
o0
n-0.121
o0
v4
o2
v0
o2
v1
o46
v3
n2
o5
o0
n-0.921
o0
v5
o2
v0
o2
v1
o41
v3
n2
o2
n-1
o5
o0
v1
v2
n2
C86	#unknown_cons1[87]
o54
3
o5
o0
n-0.809
o0
v4
o2
v0
o2
v1
o46
v3
n2
o5
o0
n-0.458
o0
v5
o2
v0
o2
v1
o41
v3
n2
o2
n-1
o5
o0
v1
v2
n2
C87	#unknown_cons1[88]
o54
3
o5
o0
n-0.477
o0
v4
o2
v0
o2
v1
o46
v3
n2
o5
o0
n-0.436
o0
v5
o2
v0
o2
v1
o41
v3
n2
o2
n-1
o5
o0
v1
v2
n2
C88	#unknown_cons1[89]
o54
3
o5
o0
n-0.267
o0
v4
o2
v0
o2
v1
o46
v3
n2
o5
o0
n-0.84
o0
v5
o2
v0
o2
v1
o41
v3
n2
o2
n-1
o5
o0
v1
v2
n2
C89	#unknown_cons1[90]
o54
3
o5
o0
n-0.412
o0
v4
o2
v0
o2
v1
o46
v3
n2
o5
o0
n-0.63
o0
v5
o2
v0
o2
v1
o41
v3
n2
o2
n-1
o5
o0
v1
v2
n2
C90	#unknown_cons1[91]
o54
3
o5
o0
n-0.663
o0
v4
o2
v0
o2
v1
o46
v3
n2
o5
o0
n-0.648
o0
v5
o2
v0
o2
v1
o41
v3
n2
o2
n-1
o5
o0
v1
v2
n2
C91	#unknown_cons1[92]
o54
3
o5
o0
n-0.83
o0
v4
o2
v0
o2
v1
o46
v3
n2
o5
o0
n-0.086
o0
v5
o2
v0
o2
v1
o41
v3
n2
o2
n-1
o5
o0
v1
v2
n2
C92	#unknown_cons1[93]
o54
3
o5
o0
n-0.324
o0
v4
o2
v0
o2
v1
o46
v3
n2
o5
o0
n-0.862
o0
v5
o2
v0
o2
v1
o41
v3
n2
o2
n-1
o5
o0
v1
v2
n2
C93	#unknown_cons1[94]
o54
3
o5
o0
n-0.225
o0
v4
o2
v0
o2
v1
o46
v3
n2
o5
o0
n-0.853
o0
v5
o2
v0
o2
v1
o41
v3
n2
o2
n-1
o5
o0
v1
v2
n2
C94	#unknown_cons1[95]
o54
3
o5
o0
n-0.87
o0
v4
o2
v0
o2
v1
o46
v3
n2
o5
o0
n-0.331
o0
v5
o2
v0
o2
v1
o41
v3
n2
o2
n-1
o5
o0
v1
v2
n2
C95	#unknown_cons1[96]
o54
3
o5
o0
n-0.343
o0
v4
o2
v0
o2
v1
o46
v3
n2
o5
o0
n-0.629
o0
v5
o2
v0
o2
v1
o41
v3
n2
o2
n-1
o5
o0
v1
v2
n2
C96	#unknown_cons1[97]
o54
3
o5
o0
n-0.849
o0
v4
o2
v0
o2
v1
o46
v3
n2
o5
o0
n-0.521
o0
v5
o2
v0
o2
v1
o41
v3
n2
o2
n-1
o5
o0
v1
v2
n2
C97	#unknown_cons1[98]
o54
3
o5
o0
n-0.655
o0
v4
o2
v0
o2
v1
o46
v3
n2
o5
o0
n-0.714
o0
v5
o2
v0
o2
v1
o41
v3
n2
o2
n-1
o5
o0
v1
v2
n2
C98	#unknown_cons1[99]
o54
3
o5
o0
n-0.558
o0
v4
o2
v0
o2
v1
o46
v3
n2
o5
o0
n-0.005
o0
v5
o2
v0
o2
v1
o41
v3
n2
o2
n-1
o5
o0
v1
v2
n2
C99	#unknown_cons1[100]
o54
3
o5
o0
n-0.83
o0
v4
o2
v0
o2
v1
o46
v3
n2
o5
o0
n-0.526
o0
v5
o2
v0
o2
v1
o41
v3
n2
o2
n-1
o5
o0
v1
v2
n2
C100	#unknown_cons2[1]
o54
3
o5
o0
n-0.544
v4
n2
o5
o0
n-0.492
v5
n2
o2
n-1
o5
o0
o2
v0
v1
v2
n2
C101	#unknown_cons2[2]
o54
3
o5
o0
n-0.714
v4
n2
o5
o0
n-0.505
v5
n2
o2
n-1
o5
o0
o2
v0
v1
v2
n2
C102	#unknown_cons2[3]
o54
3
o5
o0
n-0.594
v4
n2
o5
o0
n-0.094
v5
n2
o2
n-1
o5
o0
o2
v0
v1
v2
n2
C103	#unknown_cons2[4]
o54
3
o5
o0
n-0.474
v4
n2
o5
o0
n-0.398
v5
n2
o2
n-1
o5
o0
o2
v0
v1
v2
n2
C104	#unknown_cons2[5]
o54
3
o5
o0
n-0.47
v4
n2
o5
o0
n-0.804
v5
n2
o2
n-1
o5
o0
o2
v0
v1
v2
n2
C105	#unknown_cons2[6]
o54
3
o5
o0
n-0.241
v4
n2
o5
o0
n-0.955
v5
n2
o2
n-1
o5
o0
o2
v0
v1
v2
n2
C106	#unknown_cons2[7]
o54
3
o5
o0
n-0.503
v4
n2
o5
o0
n-0.097
v5
n2
o2
n-1
o5
o0
o2
v0
v1
v2
n2
C107	#unknown_cons2[8]
o54
3
o5
o0
n-0.854
v4
n2
o5
o0
n-0.359
v5
n2
o2
n-1
o5
o0
o2
v0
v1
v2
n2
C108	#unknown_cons2[9]
o54
3
o5
o0
n-0.438
v4
n2
o5
o0
n-0.477
v5
n2
o2
n-1
o5
o0
o2
v0
v1
v2
n2
C109	#unknown_cons2[10]
o54
3
o5
o0
n-0.294
v4
n2
o5
o0
n-0.887
v5
n2
o2
n-1
o5
o0
o2
v0
v1
v2
n2
C110	#unknown_cons2[11]
o54
3
o5
o0
n-0.479
v4
n2
o5
o0
n-0.372
v5
n2
o2
n-1
o5
o0
o2
v0
v1
v2
n2
C111	#unknown_cons2[12]
o54
3
o5
o0
n-0.413
v4
n2
o5
o0
n-0.911
v5
n2
o2
n-1
o5
o0
o2
v0
v1
v2
n2
C112	#unknown_cons2[13]
o54
3
o5
o0
n-0.722
v4
n2
o5
o0
n-0.082
v5
n2
o2
n-1
o5
o0
o2
v0
v1
v2
n2
C113	#unknown_cons2[14]
o54
3
o5
o0
n-0.358
v4
n2
o5
o0
n-0.788
v5
n2
o2
n-1
o5
o0
o2
v0
v1
v2
n2
C114	#unknown_cons2[15]
o54
3
o5
o0
n-0.836
v4
n2
o5
o0
n-0.225
v5
n2
o2
n-1
o5
o0
o2
v0
v1
v2
n2
C115	#unknown_cons2[16]
o54
3
o5
o0
n-0.648
v4
n2
o5
o0
n-0.424
v5
n2
o2
n-1
o5
o0
o2
v0
v1
v2
n2
C116	#unknown_cons2[17]
o54
3
o5
o0
n-0.267
v4
n2
o5
o0
n-0.932
v5
n2
o2
n-1
o5
o0
o2
v0
v1
v2
n2
C117	#unknown_cons2[18]
o54
3
o5
o0
n-0.362
v4
n2
o5
o0
n-0.697
v5
n2
o2
n-1
o5
o0
o2
v0
v1
v2
n2
C118	#unknown_cons2[19]
o54
3
o5
o0
n-0.232
v4
n2
o5
o0
n-0.969
v5
n2
o2
n-1
o5
o0
o2
v0
v1
v2
n2
C119	#unknown_cons2[20]
o54
3
o5
o0
n-0.667
v4
n2
o5
o0
n-0.527
v5
n2
o2
n-1
o5
o0
o2
v0
v1
v2
n2
C120	#unknown_cons2[21]
o54
3
o5
o0
n-0.476
v4
n2
o5
o0
n-0.735
v5
n2
o2
n-1
o5
o0
o2
v0
v1
v2
n2
C121	#unknown_cons2[22]
o54
3
o5
o0
n-0.868
v4
n2
o5
o0
n-0.141
v5
n2
o2
n-1
o5
o0
o2
v0
v1
v2
n2
C122	#unknown_cons2[23]
o54
3
o5
o0
n-0.603
v4
n2
o5
o0
n-0.55
v5
n2
o2
n-1
o5
o0
o2
v0
v1
v2
n2
C123	#unknown_cons2[24]
o54
3
o5
o0
n-0.788
v4
n2
o5
o0
n-0.399
v5
n2
o2
n-1
o5
o0
o2
v0
v1
v2
n2
C124	#unknown_cons2[25]
o54
3
o5
o0
n-0.745
v4
n2
o5
o0
n-0.365
v5
n2
o2
n-1
o5
o0
o2
v0
v1
v2
n2
C125	#unknown_cons2[26]
o54
3
o5
o0
n-0.627
v4
n2
o5
o0
n-0.762
v5
n2
o2
n-1
o5
o0
o2
v0
v1
v2
n2
C126	#unknown_cons2[27]
o54
3
o5
o0
n-0.394
v4
n2
o5
o0
n-0.779
v5
n2
o2
n-1
o5
o0
o2
v0
v1
v2
n2
C127	#unknown_cons2[28]
o54
3
o5
o0
n-0.22
v4
n2
o5
o0
n-0.869
v5
n2
o2
n-1
o5
o0
o2
v0
v1
v2
n2
C128	#unknown_cons2[29]
o54
3
o5
o0
n-0.548
v4
n2
o5
o0
n-0.625
v5
n2
o2
n-1
o5
o0
o2
v0
v1
v2
n2
C129	#unknown_cons2[30]
o54
3
o5
o0
n-0.446
v4
n2
o5
o0
n-0.778
v5
n2
o2
n-1
o5
o0
o2
v0
v1
v2
n2
C130	#unknown_cons2[31]
o54
3
o5
o0
n-0.463
v4
n2
o5
o0
n-0.762
v5
n2
o2
n-1
o5
o0
o2
v0
v1
v2
n2
C131	#unknown_cons2[32]
o54
3
o5
o0
n-0.541
v4
n2
o5
o0
n-0.068
v5
n2
o2
n-1
o5
o0
o2
v0
v1
v2
n2
C132	#unknown_cons2[33]
o54
3
o5
o0
n-0.631
v4
n2
o5
o0
n-0.67
v5
n2
o2
n-1
o5
o0
o2
v0
v1
v2
n2
C133	#unknown_cons2[34]
o54
3
o5
o0
n-0.735
v4
n2
o5
o0
n-0.151
v5
n2
o2
n-1
o5
o0
o2
v0
v1
v2
n2
C134	#unknown_cons2[35]
o54
3
o5
o0
n-0.674
v4
n2
o5
o0
n-0.49
v5
n2
o2
n-1
o5
o0
o2
v0
v1
v2
n2
C135	#unknown_cons2[36]
o54
3
o5
o0
n-0.62
v4
n2
o5
o0
n-0.565
v5
n2
o2
n-1
o5
o0
o2
v0
v1
v2
n2
C136	#unknown_cons2[37]
o54
3
o5
o0
n-0.257
v4
n2
o5
o0
n-0.862
v5
n2
o2
n-1
o5
o0
o2
v0
v1
v2
n2
C137	#unknown_cons2[38]
o54
3
o5
o0
n-0.659
v4
n2
o5
o0
n-0.01
v5
n2
o2
n-1
o5
o0
o2
v0
v1
v2
n2
C138	#unknown_cons2[39]
o54
3
o5
o0
n-0.475
v4
n2
o5
o0
n-0.585
v5
n2
o2
n-1
o5
o0
o2
v0
v1
v2
n2
C139	#unknown_cons2[40]
o54
3
o5
o0
n-0.708
v4
n2
o5
o0
n-0.475
v5
n2
o2
n-1
o5
o0
o2
v0
v1
v2
n2
C140	#unknown_cons2[41]
o54
3
o5
o0
n-0.545
v4
n2
o5
o0
n-0.371
v5
n2
o2
n-1
o5
o0
o2
v0
v1
v2
n2
C141	#unknown_cons2[42]
o54
3
o5
o0
n-0.586
v4
n2
o5
o0
n-0.085
v5
n2
o2
n-1
o5
o0
o2
v0
v1
v2
n2
C142	#unknown_cons2[43]
o54
3
o5
o0
n-0.796
v4
n2
o5
o0
n-0.309
v5
n2
o2
n-1
o5
o0
o2
v0
v1
v2
n2
C143	#unknown_cons2[44]
o54
3
o5
o0
n-0.525
v4
n2
o5
o0
n-0.573
v5
n2
o2
n-1
o5
o0
o2
v0
v1
v2
n2
C144	#unknown_cons2[45]
o54
3
o5
o0
n-0.498
v4
n2
o5
o0
n-0.53
v5
n2
o2
n-1
o5
o0
o2
v0
v1
v2
n2
C145	#unknown_cons2[46]
o54
3
o5
o0
n-0.79
v4
n2
o5
o0
n-0.217
v5
n2
o2
n-1
o5
o0
o2
v0
v1
v2
n2
C146	#unknown_cons2[47]
o54
3
o5
o0
n-0.632
v4
n2
o5
o0
n-0.169
v5
n2
o2
n-1
o5
o0
o2
v0
v1
v2
n2
C147	#unknown_cons2[48]
o54
3
o5
o0
n-0.699
v4
n2
o5
o0
n-0.024
v5
n2
o2
n-1
o5
o0
o2
v0
v1
v2
n2
C148	#unknown_cons2[49]
o54
3
o5
o0
n-0.758
v4
n2
o5
o0
n-0.436
v5
n2
o2
n-1
o5
o0
o2
v0
v1
v2
n2
C149	#unknown_cons2[50]
o54
3
o5
o0
n-0.656
v4
n2
o5
o0
n-0.662
v5
n2
o2
n-1
o5
o0
o2
v0
v1
v2
n2
C150	#unknown_cons2[51]
o54
3
o5
o0
n-0.652
v4
n2
o5
o0
n-0.251
v5
n2
o2
n-1
o5
o0
o2
v0
v1
v2
n2
C151	#unknown_cons2[52]
o54
3
o5
o0
n-0.801
v4
n2
o5
o0
n-0.511
v5
n2
o2
n-1
o5
o0
o2
v0
v1
v2
n2
C152	#unknown_cons2[53]
o54
3
o5
o0
n-0.73
v4
n2
o5
o0
n-0.611
v5
n2
o2
n-1
o5
o0
o2
v0
v1
v2
n2
C153	#unknown_cons2[54]
o54
3
o5
o0
n-0.689
v4
n2
o5
o0
n-0.277
v5
n2
o2
n-1
o5
o0
o2
v0
v1
v2
n2
C154	#unknown_cons2[55]
o54
3
o5
o0
n-0.527
v4
n2
o5
o0
n-0.612
v5
n2
o2
n-1
o5
o0
o2
v0
v1
v2
n2
C155	#unknown_cons2[56]
o54
3
o5
o0
n-0.696
v4
n2
o5
o0
n-0.074
v5
n2
o2
n-1
o5
o0
o2
v0
v1
v2
n2
C156	#unknown_cons2[57]
o54
3
o5
o0
n-0.911
v4
n2
o5
o0
n-0.052
v5
n2
o2
n-1
o5
o0
o2
v0
v1
v2
n2
C157	#unknown_cons2[58]
o54
3
o5
o0
n-0.805
v4
n2
o5
o0
n-0.075
v5
n2
o2
n-1
o5
o0
o2
v0
v1
v2
n2
C158	#unknown_cons2[59]
o54
3
o5
o0
n-0.764
v4
n2
o5
o0
n-0.067
v5
n2
o2
n-1
o5
o0
o2
v0
v1
v2
n2
C159	#unknown_cons2[60]
o54
3
o5
o0
n-0.331
v4
n2
o5
o0
n-0.759
v5
n2
o2
n-1
o5
o0
o2
v0
v1
v2
n2
C160	#unknown_cons2[61]
o54
3
o5
o0
n-0.078
v4
n2
o5
o0
n-0.983
v5
n2
o2
n-1
o5
o0
o2
v0
v1
v2
n2
C161	#unknown_cons2[62]
o54
3
o5
o0
n-0.656
v4
n2
o5
o0
n-0.34
v5
n2
o2
n-1
o5
o0
o2
v0
v1
v2
n2
C162	#unknown_cons2[63]
o54
3
o5
o0
n-0.48
v4
n2
o5
o0
n-0.232
v5
n2
o2
n-1
o5
o0
o2
v0
v1
v2
n2
C163	#unknown_cons2[64]
o54
3
o5
o0
n-0.503
v4
n2
o5
o0
n-0.14
v5
n2
o2
n-1
o5
o0
o2
v0
v1
v2
n2
C164	#unknown_cons2[65]
o54
3
o5
o0
n-0.412
v4
n2
o5
o0
n-0.683
v5
n2
o2
n-1
o5
o0
o2
v0
v1
v2
n2
C165	#unknown_cons2[66]
o54
3
o5
o0
n-0.338
v4
n2
o5
o0
n-0.624
v5
n2
o2
n-1
o5
o0
o2
v0
v1
v2
n2
C166	#unknown_cons2[67]
o54
3
o5
o0
n-0.92
v4
n2
o5
o0
n-0.139
v5
n2
o2
n-1
o5
o0
o2
v0
v1
v2
n2
C167	#unknown_cons2[68]
o54
3
o5
o0
n-0.548
v4
n2
o5
o0
n-0.474
v5
n2
o2
n-1
o5
o0
o2
v0
v1
v2
n2
C168	#unknown_cons2[69]
o54
3
o5
o0
n-0.826
v4
n2
o5
o0
n-0.443
v5
n2
o2
n-1
o5
o0
o2
v0
v1
v2
n2
C169	#unknown_cons2[70]
o54
3
o5
o0
n-0.071
v4
n2
o5
o0
n-0.969
v5
n2
o2
n-1
o5
o0
o2
v0
v1
v2
n2
C170	#unknown_cons2[71]
o54
3
o5
o0
n-0.635
v4
n2
o5
o0
n-0.728
v5
n2
o2
n-1
o5
o0
o2
v0
v1
v2
n2
C171	#unknown_cons2[72]
o54
3
o5
o0
n-0.591
v4
n2
o5
o0
n-0.57
v5
n2
o2
n-1
o5
o0
o2
v0
v1
v2
n2
C172	#unknown_cons2[73]
o54
3
o5
o0
n-0.489
v4
n2
o5
o0
n-0.427
v5
n2
o2
n-1
o5
o0
o2
v0
v1
v2
n2
C173	#unknown_cons2[74]
o54
3
o5
o0
n-0.565
v4
n2
o5
o0
n-0.105
v5
n2
o2
n-1
o5
o0
o2
v0
v1
v2
n2
C174	#unknown_cons2[75]
o54
3
o5
o0
n-0.791
v4
n2
o5
o0
n-0.554
v5
n2
o2
n-1
o5
o0
o2
v0
v1
v2
n2
C175	#unknown_cons2[76]
o54
3
o5
o0
n-0.725
v4
n2
o5
o0
n-0.174
v5
n2
o2
n-1
o5
o0
o2
v0
v1
v2
n2
C176	#unknown_cons2[77]
o54
3
o5
o0
n-0.091
v4
n2
o5
o0
n-0.951
v5
n2
o2
n-1
o5
o0
o2
v0
v1
v2
n2
C177	#unknown_cons2[78]
o54
3
o5
o0
n-0.401
v4
n2
o5
o0
n-0.79
v5
n2
o2
n-1
o5
o0
o2
v0
v1
v2
n2
C178	#unknown_cons2[79]
o54
3
o5
o0
n-0.226
v4
n2
o5
o0
n-0.968
v5
n2
o2
n-1
o5
o0
o2
v0
v1
v2
n2
C179	#unknown_cons2[80]
o54
3
o5
o0
n-0.518
v4
n2
o5
o0
n-0.663
v5
n2
o2
n-1
o5
o0
o2
v0
v1
v2
n2
C180	#unknown_cons2[81]
o54
3
o5
o0
n-0.651
v4
n2
o5
o0
n-0.166
v5
n2
o2
n-1
o5
o0
o2
v0
v1
v2
n2
C181	#unknown_cons2[82]
o54
3
o5
o0
n-0.738
v4
n2
o5
o0
n-0.146
v5
n2
o2
n-1
o5
o0
o2
v0
v1
v2
n2
C182	#unknown_cons2[83]
o54
3
o5
o0
n-0.509
v4
n2
o5
o0
n-0.28
v5
n2
o2
n-1
o5
o0
o2
v0
v1
v2
n2
C183	#unknown_cons2[84]
o54
3
o5
o0
n-0.833
v4
n2
o5
o0
n-0.176
v5
n2
o2
n-1
o5
o0
o2
v0
v1
v2
n2
C184	#unknown_cons2[85]
o54
3
o5
o0
n-0.669
v4
n2
o5
o0
n-0.044
v5
n2
o2
n-1
o5
o0
o2
v0
v1
v2
n2
C185	#unknown_cons2[86]
o54
3
o5
o0
n-0.121
v4
n2
o5
o0
n-0.921
v5
n2
o2
n-1
o5
o0
o2
v0
v1
v2
n2
C186	#unknown_cons2[87]
o54
3
o5
o0
n-0.809
v4
n2
o5
o0
n-0.458
v5
n2
o2
n-1
o5
o0
o2
v0
v1
v2
n2
C187	#unknown_cons2[88]
o54
3
o5
o0
n-0.477
v4
n2
o5
o0
n-0.436
v5
n2
o2
n-1
o5
o0
o2
v0
v1
v2
n2
C188	#unknown_cons2[89]
o54
3
o5
o0
n-0.267
v4
n2
o5
o0
n-0.84
v5
n2
o2
n-1
o5
o0
o2
v0
v1
v2
n2
C189	#unknown_cons2[90]
o54
3
o5
o0
n-0.412
v4
n2
o5
o0
n-0.63
v5
n2
o2
n-1
o5
o0
o2
v0
v1
v2
n2
C190	#unknown_cons2[91]
o54
3
o5
o0
n-0.663
v4
n2
o5
o0
n-0.648
v5
n2
o2
n-1
o5
o0
o2
v0
v1
v2
n2
C191	#unknown_cons2[92]
o54
3
o5
o0
n-0.83
v4
n2
o5
o0
n-0.086
v5
n2
o2
n-1
o5
o0
o2
v0
v1
v2
n2
C192	#unknown_cons2[93]
o54
3
o5
o0
n-0.324
v4
n2
o5
o0
n-0.862
v5
n2
o2
n-1
o5
o0
o2
v0
v1
v2
n2
C193	#unknown_cons2[94]
o54
3
o5
o0
n-0.225
v4
n2
o5
o0
n-0.853
v5
n2
o2
n-1
o5
o0
o2
v0
v1
v2
n2
C194	#unknown_cons2[95]
o54
3
o5
o0
n-0.87
v4
n2
o5
o0
n-0.331
v5
n2
o2
n-1
o5
o0
o2
v0
v1
v2
n2
C195	#unknown_cons2[96]
o54
3
o5
o0
n-0.343
v4
n2
o5
o0
n-0.629
v5
n2
o2
n-1
o5
o0
o2
v0
v1
v2
n2
C196	#unknown_cons2[97]
o54
3
o5
o0
n-0.849
v4
n2
o5
o0
n-0.521
v5
n2
o2
n-1
o5
o0
o2
v0
v1
v2
n2
C197	#unknown_cons2[98]
o54
3
o5
o0
n-0.655
v4
n2
o5
o0
n-0.714
v5
n2
o2
n-1
o5
o0
o2
v0
v1
v2
n2
C198	#unknown_cons2[99]
o54
3
o5
o0
n-0.558
v4
n2
o5
o0
n-0.005
v5
n2
o2
n-1
o5
o0
o2
v0
v1
v2
n2
C199	#unknown_cons2[100]
o54
3
o5
o0
n-0.83
v4
n2
o5
o0
n-0.526
v5
n2
o2
n-1
o5
o0
o2
v0
v1
v2
n2
O0 0
o54
3
o2
o5
o0
v1
v2
n2
o53
o3
o2
n0.5
o54
3
o2
n-1
o5
o2
v0
v1
n2
o5
o0
o2
v0
v1
v2
n2
o2
n-1
o5
o0
v1
v2
n2
o2
o0
v1
v2
o2
v0
v1
o2
n-1
o2
o5
o0
o2
v0
v1
v2
n2
o53
o3
o2
n0.5
o54
3
o5
o2
v0
v1
n2
o5
o0
o2
v0
v1
v2
n2
o2
n-1
o5
o0
v1
v2
n2
o2
o0
o2
v0
v1
v2
o2
v0
v1
o2
o0
v1
v2
o2
v0
o2
v1
o41
o53
o3
o2
n0.5
o54
3
o2
n-1
o5
o2
v0
v1
n2
o5
o0
o2
v0
v1
v2
n2
o2
n-1
o5
o0
v1
v2
n2
o2
o0
v1
v2
o2
v0
v1
x6
0 2.0
1 1.0
2 0.75
3 1.5
4 -40.0
5 5.0
r
1  0.0
1  0.0
1  0.0
1  0.0
1  0.0
1  0.0
1  0.0
1  0.0
1  0.0
1  0.0
1  0.0
1  0.0
1  0.0
1  0.0
1  0.0
1  0.0
1  0.0
1  0.0
1  0.0
1  0.0
1  0.0
1  0.0
1  0.0
1  0.0
1  0.0
1  0.0
1  0.0
1  0.0
1  0.0
1  0.0
1  0.0
1  0.0
1  0.0
1  0.0
1  0.0
1  0.0
1  0.0
1  0.0
1  0.0
1  0.0
1  0.0
1  0.0
1  0.0
1  0.0
1  0.0
1  0.0
1  0.0
1  0.0
1  0.0
1  0.0
1  0.0
1  0.0
1  0.0
1  0.0
1  0.0
1  0.0
1  0.0
1  0.0
1  0.0
1  0.0
1  0.0
1  0.0
1  0.0
1  0.0
1  0.0
1  0.0
1  0.0
1  0.0
1  0.0
1  0.0
1  0.0
1  0.0
1  0.0
1  0.0
1  0.0
1  0.0
1  0.0
1  0.0
1  0.0
1  0.0
1  0.0
1  0.0
1  0.0
1  0.0
1  0.0
1  0.0
1  0.0
1  0.0
1  0.0
1  0.0
1  0.0
1  0.0
1  0.0
1  0.0
1  0.0
1  0.0
1  0.0
1  0.0
1  0.0
1  0.0
2 0.0 
2 0.0 
2 0.0 
2 0.0 
2 0.0 
2 0.0 
2 0.0 
2 0.0 
2 0.0 
2 0.0 
2 0.0 
2 0.0 
2 0.0 
2 0.0 
2 0.0 
2 0.0 
2 0.0 
2 0.0 
2 0.0 
2 0.0 
2 0.0 
2 0.0 
2 0.0 
2 0.0 
2 0.0 
2 0.0 
2 0.0 
2 0.0 
2 0.0 
2 0.0 
2 0.0 
2 0.0 
2 0.0 
2 0.0 
2 0.0 
2 0.0 
2 0.0 
2 0.0 
2 0.0 
2 0.0 
2 0.0 
2 0.0 
2 0.0 
2 0.0 
2 0.0 
2 0.0 
2 0.0 
2 0.0 
2 0.0 
2 0.0 
2 0.0 
2 0.0 
2 0.0 
2 0.0 
2 0.0 
2 0.0 
2 0.0 
2 0.0 
2 0.0 
2 0.0 
2 0.0 
2 0.0 
2 0.0 
2 0.0 
2 0.0 
2 0.0 
2 0.0 
2 0.0 
2 0.0 
2 0.0 
2 0.0 
2 0.0 
2 0.0 
2 0.0 
2 0.0 
2 0.0 
2 0.0 
2 0.0 
2 0.0 
2 0.0 
2 0.0 
2 0.0 
2 0.0 
2 0.0 
2 0.0 
2 0.0 
2 0.0 
2 0.0 
2 0.0 
2 0.0 
2 0.0 
2 0.0 
2 0.0 
2 0.0 
2 0.0 
2 0.0 
2 0.0 
2 0.0 
2 0.0 
2 0.0 
b
2 1.0
2 1e-08
2 0.39
0 0.0 6.2831852
3
3
k5
200
400
600
700
900
J0 6
0 0
1 0
2 0
3 0
4 0
5 0
J1 6
0 0
1 0
2 0
3 0
4 0
5 0
J2 6
0 0
1 0
2 0
3 0
4 0
5 0
J3 6
0 0
1 0
2 0
3 0
4 0
5 0
J4 6
0 0
1 0
2 0
3 0
4 0
5 0
J5 6
0 0
1 0
2 0
3 0
4 0
5 0
J6 6
0 0
1 0
2 0
3 0
4 0
5 0
J7 6
0 0
1 0
2 0
3 0
4 0
5 0
J8 6
0 0
1 0
2 0
3 0
4 0
5 0
J9 6
0 0
1 0
2 0
3 0
4 0
5 0
J10 6
0 0
1 0
2 0
3 0
4 0
5 0
J11 6
0 0
1 0
2 0
3 0
4 0
5 0
J12 6
0 0
1 0
2 0
3 0
4 0
5 0
J13 6
0 0
1 0
2 0
3 0
4 0
5 0
J14 6
0 0
1 0
2 0
3 0
4 0
5 0
J15 6
0 0
1 0
2 0
3 0
4 0
5 0
J16 6
0 0
1 0
2 0
3 0
4 0
5 0
J17 6
0 0
1 0
2 0
3 0
4 0
5 0
J18 6
0 0
1 0
2 0
3 0
4 0
5 0
J19 6
0 0
1 0
2 0
3 0
4 0
5 0
J20 6
0 0
1 0
2 0
3 0
4 0
5 0
J21 6
0 0
1 0
2 0
3 0
4 0
5 0
J22 6
0 0
1 0
2 0
3 0
4 0
5 0
J23 6
0 0
1 0
2 0
3 0
4 0
5 0
J24 6
0 0
1 0
2 0
3 0
4 0
5 0
J25 6
0 0
1 0
2 0
3 0
4 0
5 0
J26 6
0 0
1 0
2 0
3 0
4 0
5 0
J27 6
0 0
1 0
2 0
3 0
4 0
5 0
J28 6
0 0
1 0
2 0
3 0
4 0
5 0
J29 6
0 0
1 0
2 0
3 0
4 0
5 0
J30 6
0 0
1 0
2 0
3 0
4 0
5 0
J31 6
0 0
1 0
2 0
3 0
4 0
5 0
J32 6
0 0
1 0
2 0
3 0
4 0
5 0
J33 6
0 0
1 0
2 0
3 0
4 0
5 0
J34 6
0 0
1 0
2 0
3 0
4 0
5 0
J35 6
0 0
1 0
2 0
3 0
4 0
5 0
J36 6
0 0
1 0
2 0
3 0
4 0
5 0
J37 6
0 0
1 0
2 0
3 0
4 0
5 0
J38 6
0 0
1 0
2 0
3 0
4 0
5 0
J39 6
0 0
1 0
2 0
3 0
4 0
5 0
J40 6
0 0
1 0
2 0
3 0
4 0
5 0
J41 6
0 0
1 0
2 0
3 0
4 0
5 0
J42 6
0 0
1 0
2 0
3 0
4 0
5 0
J43 6
0 0
1 0
2 0
3 0
4 0
5 0
J44 6
0 0
1 0
2 0
3 0
4 0
5 0
J45 6
0 0
1 0
2 0
3 0
4 0
5 0
J46 6
0 0
1 0
2 0
3 0
4 0
5 0
J47 6
0 0
1 0
2 0
3 0
4 0
5 0
J48 6
0 0
1 0
2 0
3 0
4 0
5 0
J49 6
0 0
1 0
2 0
3 0
4 0
5 0
J50 6
0 0
1 0
2 0
3 0
4 0
5 0
J51 6
0 0
1 0
2 0
3 0
4 0
5 0
J52 6
0 0
1 0
2 0
3 0
4 0
5 0
J53 6
0 0
1 0
2 0
3 0
4 0
5 0
J54 6
0 0
1 0
2 0
3 0
4 0
5 0
J55 6
0 0
1 0
2 0
3 0
4 0
5 0
J56 6
0 0
1 0
2 0
3 0
4 0
5 0
J57 6
0 0
1 0
2 0
3 0
4 0
5 0
J58 6
0 0
1 0
2 0
3 0
4 0
5 0
J59 6
0 0
1 0
2 0
3 0
4 0
5 0
J60 6
0 0
1 0
2 0
3 0
4 0
5 0
J61 6
0 0
1 0
2 0
3 0
4 0
5 0
J62 6
0 0
1 0
2 0
3 0
4 0
5 0
J63 6
0 0
1 0
2 0
3 0
4 0
5 0
J64 6
0 0
1 0
2 0
3 0
4 0
5 0
J65 6
0 0
1 0
2 0
3 0
4 0
5 0
J66 6
0 0
1 0
2 0
3 0
4 0
5 0
J67 6
0 0
1 0
2 0
3 0
4 0
5 0
J68 6
0 0
1 0
2 0
3 0
4 0
5 0
J69 6
0 0
1 0
2 0
3 0
4 0
5 0
J70 6
0 0
1 0
2 0
3 0
4 0
5 0
J71 6
0 0
1 0
2 0
3 0
4 0
5 0
J72 6
0 0
1 0
2 0
3 0
4 0
5 0
J73 6
0 0
1 0
2 0
3 0
4 0
5 0
J74 6
0 0
1 0
2 0
3 0
4 0
5 0
J75 6
0 0
1 0
2 0
3 0
4 0
5 0
J76 6
0 0
1 0
2 0
3 0
4 0
5 0
J77 6
0 0
1 0
2 0
3 0
4 0
5 0
J78 6
0 0
1 0
2 0
3 0
4 0
5 0
J79 6
0 0
1 0
2 0
3 0
4 0
5 0
J80 6
0 0
1 0
2 0
3 0
4 0
5 0
J81 6
0 0
1 0
2 0
3 0
4 0
5 0
J82 6
0 0
1 0
2 0
3 0
4 0
5 0
J83 6
0 0
1 0
2 0
3 0
4 0
5 0
J84 6
0 0
1 0
2 0
3 0
4 0
5 0
J85 6
0 0
1 0
2 0
3 0
4 0
5 0
J86 6
0 0
1 0
2 0
3 0
4 0
5 0
J87 6
0 0
1 0
2 0
3 0
4 0
5 0
J88 6
0 0
1 0
2 0
3 0
4 0
5 0
J89 6
0 0
1 0
2 0
3 0
4 0
5 0
J90 6
0 0
1 0
2 0
3 0
4 0
5 0
J91 6
0 0
1 0
2 0
3 0
4 0
5 0
J92 6
0 0
1 0
2 0
3 0
4 0
5 0
J93 6
0 0
1 0
2 0
3 0
4 0
5 0
J94 6
0 0
1 0
2 0
3 0
4 0
5 0
J95 6
0 0
1 0
2 0
3 0
4 0
5 0
J96 6
0 0
1 0
2 0
3 0
4 0
5 0
J97 6
0 0
1 0
2 0
3 0
4 0
5 0
J98 6
0 0
1 0
2 0
3 0
4 0
5 0
J99 6
0 0
1 0
2 0
3 0
4 0
5 0
J100 5
0 0
1 0
2 0
4 0
5 0
J101 5
0 0
1 0
2 0
4 0
5 0
J102 5
0 0
1 0
2 0
4 0
5 0
J103 5
0 0
1 0
2 0
4 0
5 0
J104 5
0 0
1 0
2 0
4 0
5 0
J105 5
0 0
1 0
2 0
4 0
5 0
J106 5
0 0
1 0
2 0
4 0
5 0
J107 5
0 0
1 0
2 0
4 0
5 0
J108 5
0 0
1 0
2 0
4 0
5 0
J109 5
0 0
1 0
2 0
4 0
5 0
J110 5
0 0
1 0
2 0
4 0
5 0
J111 5
0 0
1 0
2 0
4 0
5 0
J112 5
0 0
1 0
2 0
4 0
5 0
J113 5
0 0
1 0
2 0
4 0
5 0
J114 5
0 0
1 0
2 0
4 0
5 0
J115 5
0 0
1 0
2 0
4 0
5 0
J116 5
0 0
1 0
2 0
4 0
5 0
J117 5
0 0
1 0
2 0
4 0
5 0
J118 5
0 0
1 0
2 0
4 0
5 0
J119 5
0 0
1 0
2 0
4 0
5 0
J120 5
0 0
1 0
2 0
4 0
5 0
J121 5
0 0
1 0
2 0
4 0
5 0
J122 5
0 0
1 0
2 0
4 0
5 0
J123 5
0 0
1 0
2 0
4 0
5 0
J124 5
0 0
1 0
2 0
4 0
5 0
J125 5
0 0
1 0
2 0
4 0
5 0
J126 5
0 0
1 0
2 0
4 0
5 0
J127 5
0 0
1 0
2 0
4 0
5 0
J128 5
0 0
1 0
2 0
4 0
5 0
J129 5
0 0
1 0
2 0
4 0
5 0
J130 5
0 0
1 0
2 0
4 0
5 0
J131 5
0 0
1 0
2 0
4 0
5 0
J132 5
0 0
1 0
2 0
4 0
5 0
J133 5
0 0
1 0
2 0
4 0
5 0
J134 5
0 0
1 0
2 0
4 0
5 0
J135 5
0 0
1 0
2 0
4 0
5 0
J136 5
0 0
1 0
2 0
4 0
5 0
J137 5
0 0
1 0
2 0
4 0
5 0
J138 5
0 0
1 0
2 0
4 0
5 0
J139 5
0 0
1 0
2 0
4 0
5 0
J140 5
0 0
1 0
2 0
4 0
5 0
J141 5
0 0
1 0
2 0
4 0
5 0
J142 5
0 0
1 0
2 0
4 0
5 0
J143 5
0 0
1 0
2 0
4 0
5 0
J144 5
0 0
1 0
2 0
4 0
5 0
J145 5
0 0
1 0
2 0
4 0
5 0
J146 5
0 0
1 0
2 0
4 0
5 0
J147 5
0 0
1 0
2 0
4 0
5 0
J148 5
0 0
1 0
2 0
4 0
5 0
J149 5
0 0
1 0
2 0
4 0
5 0
J150 5
0 0
1 0
2 0
4 0
5 0
J151 5
0 0
1 0
2 0
4 0
5 0
J152 5
0 0
1 0
2 0
4 0
5 0
J153 5
0 0
1 0
2 0
4 0
5 0
J154 5
0 0
1 0
2 0
4 0
5 0
J155 5
0 0
1 0
2 0
4 0
5 0
J156 5
0 0
1 0
2 0
4 0
5 0
J157 5
0 0
1 0
2 0
4 0
5 0
J158 5
0 0
1 0
2 0
4 0
5 0
J159 5
0 0
1 0
2 0
4 0
5 0
J160 5
0 0
1 0
2 0
4 0
5 0
J161 5
0 0
1 0
2 0
4 0
5 0
J162 5
0 0
1 0
2 0
4 0
5 0
J163 5
0 0
1 0
2 0
4 0
5 0
J164 5
0 0
1 0
2 0
4 0
5 0
J165 5
0 0
1 0
2 0
4 0
5 0
J166 5
0 0
1 0
2 0
4 0
5 0
J167 5
0 0
1 0
2 0
4 0
5 0
J168 5
0 0
1 0
2 0
4 0
5 0
J169 5
0 0
1 0
2 0
4 0
5 0
J170 5
0 0
1 0
2 0
4 0
5 0
J171 5
0 0
1 0
2 0
4 0
5 0
J172 5
0 0
1 0
2 0
4 0
5 0
J173 5
0 0
1 0
2 0
4 0
5 0
J174 5
0 0
1 0
2 0
4 0
5 0
J175 5
0 0
1 0
2 0
4 0
5 0
J176 5
0 0
1 0
2 0
4 0
5 0
J177 5
0 0
1 0
2 0
4 0
5 0
J178 5
0 0
1 0
2 0
4 0
5 0
J179 5
0 0
1 0
2 0
4 0
5 0
J180 5
0 0
1 0
2 0
4 0
5 0
J181 5
0 0
1 0
2 0
4 0
5 0
J182 5
0 0
1 0
2 0
4 0
5 0
J183 5
0 0
1 0
2 0
4 0
5 0
J184 5
0 0
1 0
2 0
4 0
5 0
J185 5
0 0
1 0
2 0
4 0
5 0
J186 5
0 0
1 0
2 0
4 0
5 0
J187 5
0 0
1 0
2 0
4 0
5 0
J188 5
0 0
1 0
2 0
4 0
5 0
J189 5
0 0
1 0
2 0
4 0
5 0
J190 5
0 0
1 0
2 0
4 0
5 0
J191 5
0 0
1 0
2 0
4 0
5 0
J192 5
0 0
1 0
2 0
4 0
5 0
J193 5
0 0
1 0
2 0
4 0
5 0
J194 5
0 0
1 0
2 0
4 0
5 0
J195 5
0 0
1 0
2 0
4 0
5 0
J196 5
0 0
1 0
2 0
4 0
5 0
J197 5
0 0
1 0
2 0
4 0
5 0
J198 5
0 0
1 0
2 0
4 0
5 0
J199 5
0 0
1 0
2 0
4 0
5 0
G0 3
0 0
1 0
2 0
